\ Generated by MPModelProtoExporter
\   Name             : 
\   Format           : Free
\   Constraints      : 4
\   Variables        : 5
\     Binary         : 3
\     Integer        : 2
\     Continuous     : 0
Maximize
 Obj: +10 x[0] +15 x[1] -50000 y[1] -80000 y[2] 
Subject to
 const_0: +0.02 x[0] +0.025 x[1] -1e+06 y[0]  <= 500
 const_1: +0.025 x[0] +0.04 x[1] +1e+06 y[0]  <= 1.0007e+06
 const_2: +1 x[0] -1e+06 y[1]  <= 0
 const_3: +1 x[1] -1e+06 y[2]  <= 0
Bounds
 0 <= x[0] <= inf
 0 <= x[1] <= inf
 0 <= y[0] <= 1
 0 <= y[1] <= 1
 0 <= y[2] <= 1
Binaries
 y[0]
 y[1]
 y[2]
Generals
 x[0]
 x[1]
End
